data/CVRPLIB/Vrp-Set-XML100/instances/XML100_2215_18.vrp
NAME : XML100_2215_18
COMMENT : Generated by Queiroga, Sadykov, Uchoa, and Vidal (2021)
TYPE : CVRP
DIMENSION : 101
EDGE_WEIGHT_TYPE : EUC_2D
CAPACITY : 17
NODE_COORD_SECTION
1    500  500 
2    526  875 
3    585  873 
4    226  120 
5    363  89  
6    389  904 
7    733  241 
8    879  212 
9    456  901 
10   474  918 
11   626  145 
12   681  887 
13   352  102 
14   857  743 
15   858  81  
16   454  923 
17   854  330 
18   357  912 
19   721  232 
20   834  195 
21   842  538 
22   773  118 
23   505  949 
24   858  717 
25   756  68  
26   946  331 
27   502  801 
28   336  939 
29   501  758 
30   762  637 
31   629  130 
32   497  921 
33   474  913 
34   468  817 
35   330  31  
36   816  683 
37   564  313 
38   881  576 
39   753  213 
40   293  97  
41   804  308 
42   330  72  
43   359  96  
44   534  881 
45   902  625 
46   260  356 
47   293  120 
48   986  622 
49   726  27  
50   749  92  
51   413  738 
52   336  15  
53   514  933 
54   327  937 
55   334  796 
56   859  70  
57   862  656 
58   734  68  
59   461  923 
60   922  627 
61   915  651 
62   356  28  
63   509  796 
64   714  173 
65   435  962 
66   527  914 
67   816  505 
68   405  209 
69   370  21  
70   372  279 
71   616  216 
72   423  973 
73   429  926 
74   798  698 
75   204  241 
76   254  176 
77   466  959 
78   331  47  
79   756  143 
80   318  24  
81   319  986 
82   802  138 
83   775  172 
84   515  925 
85   957  580 
86   274  139 
87   361  122 
88   540  4   
89   519  868 
90   334  49  
91   803  684 
92   320  748 
93   514  46  
94   894  576 
95   426  881 
96   289  100 
97   744  38  
98   768  158 
99   411  181 
100  976  617 
101  586  763 
DEMAND_SECTION
1    0   
2    1   
3    1   
4    1   
5    1   
6    1   
7    1   
8    1   
9    1   
10   1   
11   1   
12   1   
13   1   
14   1   
15   1   
16   1   
17   1   
18   1   
19   1   
20   1   
21   1   
22   1   
23   1   
24   1   
25   1   
26   1   
27   1   
28   1   
29   1   
30   1   
31   1   
32   1   
33   1   
34   1   
35   1   
36   1   
37   1   
38   1   
39   1   
40   1   
41   1   
42   1   
43   1   
44   1   
45   1   
46   1   
47   1   
48   1   
49   1   
50   1   
51   1   
52   1   
53   1   
54   1   
55   1   
56   1   
57   1   
58   1   
59   1   
60   1   
61   1   
62   1   
63   1   
64   1   
65   1   
66   1   
67   1   
68   1   
69   1   
70   1   
71   1   
72   1   
73   1   
74   1   
75   1   
76   1   
77   1   
78   1   
79   1   
80   1   
81   1   
82   1   
83   1   
84   1   
85   1   
86   1   
87   1   
88   1   
89   1   
90   1   
91   1   
92   1   
93   1   
94   1   
95   1   
96   1   
97   1   
98   1   
99   1   
100  1   
101  1   
DEPOT_SECTION
1
-1
EOF
