data/CVRPLIB/Vrp-Set-XML100/solutions/XML100_2215_18.sol
Route #1: 100 11 2 65 83 52 22 76 64 71 80 53 27 17 5 54 91
Route #2: 18 6 38 63 82 97 78 21 81 55 14 19 7 25 16 40
Route #3: 67 98 86 12 42 4 92 87 48 96 57 24 49 30 10 70 36
Route #4: 28 62 26 88 1 43 31 32 9 58 15 72 8 94 33 50
Route #5: 29 90 35 73 13 23 56 60 44 59 47 99 84 93 37 20 66
Route #6: 45 74 75 3 85 46 95 39 41 89 77 34 79 51 61 68 69
Cost 8041
